peakDumbCharging = 7400; 
Machine = anon_enum(16); 
machineSpeed = [3700,3700,3700,3700,3700,3700,3700,3700,3700,3700,3700,3700,3700,3700,3700,3700]; 
machineLoad = [3700,3700,3700,3700,3700,3700,3700,3700,3700,3700,3700,3700,3700,3700,3700,3700]; 
Car = anon_enum(5); 
demandCar = [8800,14480,4440,31160,9360]; 
arrivalCar = [80,71,62,62,55]; 
departureCar = [84,76,64,77,58]; 
